# HZ S RI R 50
50000 -0.002963755 -0.00648115 1.003630638 -0.008078938 0 0 0 0
2049500 -0.014757664 -0.03109662 0.950905856 -0.286665984 0 0 0 0
4049000 -0.047678272 -0.052985832 0.848669696 -0.522201664 0 0 0 0
6048500 -0.090619344 -0.050082712 0.685932672 -0.729329408 0 0 0 0
8048000 -0.1284446 -0.018719092 0.465709216 -0.891425344 0 0 0 0
10047500 -0.14674048 0.03807 0.195044256 -0.985082304 0 0 0 0
12047000 -0.134412768 0.109526824 -0.103460984 -0.988717312 0 0 0 0
14046500 -0.087232512 0.180749504 -0.394408896 -0.89513568 0 0 0 0
16046000 -0.007651005 0.239271648 -0.64329824 -0.705509824 0 0 0 0
18045500 0.099038672 0.27734576 -0.814864448 -0.434222016 0 0 0 0
20045000 0.232178016 0.291864128 -0.870155328 -0.108735096 0 0 0 0
22044500 0.398466816 0.268034192 -0.780125888 0.215272736 0 0 0 0
24044000 0.58992992 0.168847072 -0.550247232 0.450344 0 0 0 0
26043500 0.748211584 -0.0368584 -0.264191424 0.522236 0 0 0 0
28043000 0.798074432 -0.307324096 -0.037574256 0.449812928 0 0 0 0
30042500 0.733292352 -0.55620448 0.082493616 0.32319824 0 0 0 0
32042000 0.604404096 -0.737986752 0.122113448 0.208938688 0 0 0 0
34041500 0.456783712 -0.85446368 0.121046088 0.126863376 0 0 0 0
36041000 0.313275968 -0.923535616 0.104712232 0.073409744 0 0 0 0
38040500 0.183026224 -0.962145792 0.08490688 0.04028384 0 0 0 0
40040000 0.066177688 -0.979208896 0.066746636 0.020319748 0 0 0 0
42039500 -0.037089164 -0.981322496 0.05168904 0.008599717 0 0 0 0
44039000 -0.127991904 -0.97291296 0.03966764 0.00196617 0 0 0 0
46038500 -0.209056112 -0.958650944 0.030264196 -0.001713672 0 0 0 0
48038000 -0.280869856 -0.941051328 0.023048762 -0.003571222 0 0 0 0
50037500 -0.344438656 -0.919928512 0.017559162 -0.004315598 0 0 0 0
52037000 -0.401165312 -0.896387072 0.01337044 -0.004494645 0 0 0 0
54036500 -0.451504448 -0.871456832 0.01024027 -0.004281394 0 0 0 0
56036000 -0.49759344 -0.847519424 0.007757641 -0.003898562 0 0 0 0
58035500 -0.53898816 -0.822536832 0.005868171 -0.003549477 0 0 0 0
60035000 -0.576219904 -0.797300992 0.004551098 -0.003091766 0 0 0 0
62034500 -0.609410304 -0.771943616 0.003402003 -0.002697997 0 0 0 0
64034000 -0.639811328 -0.747245568 0.002569269 -0.002327522 0 0 0 0
66033500 -0.668301248 -0.7235568 0.002006162 -0.0019629 0 0 0 0
68033000 -0.693735808 -0.700052096 0.001493404 -0.00165514 0 0 0 0
70032500 -0.716578688 -0.676578816 0.001146238 -0.001418318 0 0 0 0
72032000 -0.737160192 -0.65344672 0.000920619 -0.00117697 0 0 0 0
74031500 -0.757478016 -0.632261888 0.000600149 -0.001047995 0 0 0 0
76031000 -0.776086592 -0.611383936 0.000523299 -0.000847082 0 0 0 0
78030500 -0.792500288 -0.59079328 0.000338195 -0.00070333 0 0 0 0
80030000 -0.80694528 -0.57008192 0.000237603 -0.00059235 0 0 0 0
82029500 -0.820957696 -0.55075168 0.000184305 -0.000476565 0 0 0 0
84029000 -0.83417056 -0.532584064 0.00010491 -0.00036524 0 0 0 0
86028500 -0.845815616 -0.514158144 4.7189e-05 -0.000371951 0 0 0 0
88028000 -0.856313856 -0.495772064 3.0472e-05 -0.00029514 0 0 0 0
90027500 -0.865396672 -0.477852288 2.4673e-05 -0.000281224 0 0 0 0
92027000 -0.875323072 -0.460164704 -7.04e-06 -0.000257024 0 0 0 0
94026500 -0.884459008 -0.443019968 -9.144e-06 -0.000158111 0 0 0 0
96026000 -0.89245952 -0.426414496 -9.1944e-05 -0.000158456 0 0 0 0
98025500 -0.899136704 -0.409888192 -7.8844e-05 -0.000156996 0 0 0 0
100025000 -0.906232512 -0.393818656 -4.9349e-05 -4.2979e-05 0 0 0 0
102024500 -0.91366624 -0.378721792 -0.000106244 -3.7246e-05 0 0 0 0
104024000 -0.919607552 -0.363663616 -8.7135e-05 -6.5837e-05 0 0 0 0
106023500 -0.925071488 -0.348490432 -5.7835e-05 -2.8105e-05 0 0 0 0
108023000 -0.929737728 -0.333600288 -4.0526e-05 -6.934e-06 0 0 0 0
110022500 -0.935696704 -0.319839488 -3.2281e-05 1.7006e-05 0 0 0 0
112022000 -0.940682688 -0.306049568 -5.13e-06 1.21e-07 0 0 0 0
114021500 -0.945000512 -0.292353184 -2.7993e-05 -1.2548e-05 0 0 0 0
116021000 -0.94863296 -0.279002336 -4.6185e-05 4.8258e-05 0 0 0 0
118020500 -0.952053376 -0.265889472 1.6319e-05 3.18e-05 0 0 0 0
120020000 -0.956537728 -0.25333288 -1.5013e-05 7.1365e-05 0 0 0 0
122019500 -0.96015296 -0.240949504 -2.1493e-05 4.4784e-05 0 0 0 0
124019000 -0.962686656 -0.228664208 2.4146e-05 2.8268e-05 0 0 0 0
126018500 -0.964766912 -0.216074752 -1.204e-06 0.000117302 0 0 0 0
128018000 -0.965754688 -0.203825664 1.5541e-05 0.000105889 0 0 0 0
130017500 -0.967238336 -0.18961552 0.000450819 -0.000214171 0 0 0 0
132017000 -0.97005984 -0.181980144 4.3052e-05 0.000150866 0 0 0 0
134016500 -0.974899136 -0.171065248 4.1844e-05 0.000118485 0 0 0 0
136016000 -0.975342336 -0.159703824 9.3694e-05 0.000131632 0 0 0 0
138015500 -0.978741888 -0.149000592 8.5435e-05 0.000159385 0 0 0 0
140015000 -0.980483904 -0.138376624 -4.097e-06 0.000112966 0 0 0 0
142014500 -0.981679104 -0.128501192 0.000100441 0.000181177 0 0 0 0
144014000 -0.97731392 -0.11511596 0.000119096 0.000234263 0 0 0 0
146013500 -0.985481472 -0.107543296 7.7558e-05 0.000204239 0 0 0 0
148013000 -0.986664768 -0.097479176 0.000145807 0.000215053 0 0 0 0
150012500 -0.986707072 -0.087131344 0.000216292 0.000239165 0 0 0 0
152012000 -0.989003392 -0.077380968 0.000238689 0.000276425 0 0 0 0
154011500 -0.989241344 -0.068229648 0.000219726 0.000251234 0 0 0 0
156011000 -0.990518976 -0.057994096 0.00023227 0.000312572 0 0 0 0
158010500 -0.99106464 -0.04918706 0.00029645 0.000291067 0 0 0 0
160010000 -0.991480512 -0.040313624 0.000337773 0.00031006 0 0 0 0
162009500 -0.991561472 -0.029829206 0.000311236 0.000295443 0 0 0 0
164009000 -0.993574464 -0.021447844 0.000361982 0.000311331 0 0 0 0
166008500 -0.994317056 -0.012678817 0.000328509 0.000334167 0 0 0 0
168008000 -0.9947392 -0.00383253 0.000351957 0.000379994 0 0 0 0
170007500 -0.994747136 0.006031188 0.000331929 0.000365122 0 0 0 0
172007000 -0.994189568 0.013107198 0.00035902 0.000382091 0 0 0 0
174006500 -0.9936688 0.022054138 0.000371049 0.000456327 0 0 0 0
176006000 -0.994793152 0.030574612 0.000319967 0.000435675 0 0 0 0
178005500 -0.994686976 0.038854944 0.000363701 0.000449668 0 0 0 0
180005000 -0.99356288 0.047227504 0.000318852 0.000455363 0 0 0 0
182004500 -0.99422752 0.052180228 0.000353721 0.000550882 0 0 0 0
184004000 -0.995367296 0.062577168 0.000322325 0.000517237 0 0 0 0
186003500 -0.99501824 0.070714192 0.000300914 0.000559851 0 0 0 0
188003000 -0.993601344 0.078945 0.000323825 0.000565754 0 0 0 0
190002500 -0.993905216 0.086640392 0.000389376 0.000514671 0 0 0 0
192002000 -0.994297472 0.09434468 0.000413579 0.000542009 0 0 0 0
194001500 -0.993680384 0.101936152 0.00040057 0.000605731 0 0 0 0
196001000 -0.992602048 0.109744192 0.000478755 0.000558081 0 0 0 0
198000500 -0.9915328 0.116707936 0.000452507 0.000602553 0 0 0 0
200000000 -0.992284096 0.124383808 0.000577378 0.000609911 0 0 0 0
