# HZ S RI R 50
70000000 0.42337728 -0.887106112 0.046678836 0.024275092 0 0 0 0
70550000 0.408537088 -0.893562944 0.051051504 0.025250946 0 0 0 0
71100000 0.392843616 -0.899427264 0.055751624 0.026156326 0 0 0 0
71650000 0.376866944 -0.905785216 0.061009484 0.027009124 0 0 0 0
72200000 0.360077792 -0.911797952 0.066719996 0.027651662 0 0 0 0
72750000 0.34267168 -0.917844864 0.073062856 0.028130686 0 0 0 0
73300000 0.324904416 -0.923307456 0.079875992 0.028553306 0 0 0 0
73850000 0.305859584 -0.928652608 0.087418576 0.028621314 0 0 0 0
74400000 0.286399648 -0.9338368 0.095710832 0.02842364 0 0 0 0
74950000 0.265884992 -0.938511104 0.10479416 0.027907102 0 0 0 0
75500000 0.244600368 -0.943046912 0.114816752 0.026811454 0 0 0 0
76050000 0.222450816 -0.946890624 0.12574148 0.025329938 0 0 0 0
76600000 0.198991808 -0.950467456 0.13770744 0.022947904 0 0 0 0
77150000 0.17468944 -0.953396608 0.150929856 0.019733596 0 0 0 0
77700000 0.149127984 -0.955276096 0.16519976 0.015386498 0 0 0 0
78250000 0.12228388 -0.956512256 0.180908384 0.009694593 0 0 0 0
78800000 0.09459012 -0.956341632 0.198024784 0.002395226 0 0 0 0
79350000 0.065062604 -0.954979584 0.216398176 -0.00703698 0 0 0 0
79900000 0.03458106 -0.95229888 0.236227728 -0.018832964 0 0 0 0
80450000 0.002446668 -0.94756608 0.2571576 -0.033551158 0 0 0 0
81000000 -0.031037494 -0.941186176 0.27944576 -0.052073848 0 0 0 0
81550000 -0.065664208 -0.931951232 0.302216992 -0.074444984 0 0 0 0
82100000 -0.101759296 -0.919861056 0.325326784 -0.102046096 0 0 0 0
82650000 -0.138434304 -0.904650048 0.34831248 -0.135132976 0 0 0 0
83200000 -0.175700128 -0.885132224 0.369818592 -0.174895984 0 0 0 0
83750000 -0.213044304 -0.861414784 0.388294176 -0.221513088 0 0 0 0
84300000 -0.24928008 -0.833004032 0.402459616 -0.275278048 0 0 0 0
84850000 -0.283942048 -0.798971776 0.409684256 -0.336545024 0 0 0 0
85400000 -0.31589584 -0.759950592 0.408419584 -0.404213056 0 0 0 0
85950000 -0.34325744 -0.71578432 0.395811584 -0.476729952 0 0 0 0
86500000 -0.36516304 -0.667153536 0.370272352 -0.5520432 0 0 0 0
87050000 -0.379938528 -0.615320512 0.330435328 -0.626500736 0 0 0 0
87600000 -0.386960448 -0.562043456 0.276170528 -0.69702304 0 0 0 0
88150000 -0.385611296 -0.50946672 0.20820776 -0.759273472 0 0 0 0
88700000 -0.376558368 -0.45949968 0.129033592 -0.81082976 0 0 0 0
89250000 -0.3608672 -0.4145536 0.041773708 -0.848703552 0 0 0 0
89800000 -0.340218144 -0.375725792 -0.05064404 -0.872146624 0 0 0 0
90350000 -0.316962944 -0.343977184 -0.14421424 -0.881134912 0 0 0 0
90900000 -0.29295696 -0.3192192 -0.236295104 -0.876609344 0 0 0 0
91450000 -0.27045184 -0.300570816 -0.324462816 -0.859906112 0 0 0 0
92000000 -0.250407552 -0.287189984 -0.407489536 -0.833168064 0 0 0 0
92550000 -0.233937888 -0.277398784 -0.484037088 -0.798030656 0 0 0 0
93100000 -0.221409232 -0.27011248 -0.55417216 -0.756191104 0 0 0 0
93650000 -0.213018352 -0.263728768 -0.61754304 -0.709087744 0 0 0 0
94200000 -0.208217232 -0.257316624 -0.67432736 -0.658056704 0 0 0 0
94750000 -0.207016752 -0.249874352 -0.725092224 -0.603454144 0 0 0 0
95300000 -0.208352368 -0.240721536 -0.76962176 -0.54677952 0 0 0 0
95850000 -0.212122256 -0.229230896 -0.80872128 -0.487782304 0 0 0 0
96400000 -0.217243344 -0.214774464 -0.842133376 -0.427196128 0 0 0 0
96950000 -0.223307232 -0.19752584 -0.870769984 -0.365523936 0 0 0 0
97500000 -0.229423376 -0.176765152 -0.893785472 -0.302570496 0 0 0 0
98050000 -0.234944496 -0.152914544 -0.9118624 -0.239211184 0 0 0 0
98600000 -0.239528096 -0.125850528 -0.925052416 -0.175367472 0 0 0 0
99150000 -0.242110544 -0.095364352 -0.932726976 -0.111097424 0 0 0 0
99700000 -0.242168272 -0.06225272 -0.935641536 -0.047428008 0 0 0 0
100250000 -0.239312448 -0.026454006 -0.933354944 0.015774604 0 0 0 0
100800000 -0.232606288 0.011501965 -0.925789376 0.077748024 0 0 0 0
101350000 -0.22183424 0.05083768 -0.91377248 0.1379648 0 0 0 0
101900000 -0.206569296 0.091419752 -0.89660224 0.196560864 0 0 0 0
102450000 -0.186304048 0.132048608 -0.874933888 0.252244384 0 0 0 0
103000000 -0.161234304 0.172083792 -0.849572736 0.305302496 0 0 0 0
103550000 -0.131049128 0.210855232 -0.819961536 0.354786368 0 0 0 0
104100000 -0.095949184 0.24720848 -0.786939712 0.400378048 0 0 0 0
104650000 -0.056292984 0.280564 -0.751594112 0.442323744 0 0 0 0
105200000 -0.012700334 0.310194624 -0.713500288 0.480081216 0 0 0 0
105750000 0.03448266 0.33539968 -0.673563264 0.513322592 0 0 0 0
106300000 0.084478312 0.355610112 -0.632729152 0.542243392 0 0 0 0
106850000 0.136302192 0.370590336 -0.590966592 0.567180352 0 0 0 0
107400000 0.189273312 0.38018096 -0.548844224 0.587749568 0 0 0 0
107950000 0.242663264 0.38438832 -0.507138624 0.604406784 0 0 0 0
108500000 0.2957656 0.383135712 -0.46588032 0.617329408 0 0 0 0
109050000 0.347542912 0.376778496 -0.425766656 0.626999552 0 0 0 0
109600000 0.397416032 0.365792736 -0.386594112 0.63336768 0 0 0 0
110150000 0.445097664 0.35070896 -0.348786976 0.636886464 0 0 0 0
110700000 0.490258912 0.331959392 -0.312552192 0.637989888 0 0 0 0
111250000 0.5324664 0.309741152 -0.278108544 0.636714368 0 0 0 0
111800000 0.571214848 0.28502992 -0.245163072 0.633636096 0 0 0 0
112350000 0.60704128 0.25839552 -0.214037792 0.628813888 0 0 0 0
112900000 0.639569856 0.229912176 -0.184785776 0.622500416 0 0 0 0
113450000 0.668969856 0.199798496 -0.157159584 0.615040064 0 0 0 0
114000000 0.695114624 0.169215392 -0.131340328 0.606620736 0 0 0 0
114550000 0.718331072 0.138002448 -0.1070422 0.597263552 0 0 0 0
115100000 0.738871488 0.106568016 -0.084374896 0.587334464 0 0 0 0
115650000 0.756719104 0.075150312 -0.063250148 0.576868416 0 0 0 0
116200000 0.77213664 0.043747384 -0.043521852 0.56605824 0 0 0 0
116750000 0.785419776 0.012644417 -0.025136016 0.554856128 0 0 0 0
117300000 0.796294592 -0.017755346 -0.008106947 0.543494656 0 0 0 0
117850000 0.80519456 -0.047476704 0.007771798 0.532112352 0 0 0 0
118400000 0.812791232 -0.076662192 0.022480034 0.52072896 0 0 0 0
118950000 0.81873632 -0.105177768 0.036285332 0.509188352 0 0 0 0
119500000 0.82299584 -0.132757288 0.049037656 0.497747616 0 0 0 0
120050000 0.826121344 -0.159794528 0.060872028 0.486482688 0 0 0 0
120600000 0.827697984 -0.18572704 0.071822688 0.475216288 0 0 0 0
121150000 0.82845472 -0.211038752 0.082047304 0.46430352 0 0 0 0
121700000 0.8284704 -0.23541488 0.09148236 0.453486048 0 0 0 0
122250000 0.827461248 -0.258899216 0.10035128 0.442797632 0 0 0 0
122800000 0.82562496 -0.281789824 0.108570504 0.432305888 0 0 0 0
123350000 0.823248 -0.303822592 0.116140496 0.422062624 0 0 0 0
123900000 0.820030784 -0.325247008 0.123159872 0.411939488 0 0 0 0
124450000 0.816288 -0.345668 0.129738448 0.402124864 0 0 0 0
125000000 0.812110208 -0.365461536 0.135763888 0.392619008 0 0 0 0
