# HZ S RI R 50
50000 0.997721408 0.000106707 0.000159861 -0.000137019 0 0 0 0
9049500 0.991958976 -0.122026664 -1.5989e-05 -2.9144e-05 0 0 0 0
18049000 0.969265984 -0.241926048 -0.000103401 7.6001e-05 0 0 0 0
27048500 0.930276096 -0.360090816 0.000245536 0.000523219 0 0 0 0
36048000 0.870978752 -0.477923104 0.000463913 0.000234453 0 0 0 0
45047500 0.790946944 -0.591308864 0.0019679 -0.000470871 0 0 0 0
54047000 0.68631296 -0.707206208 0.005944071 -0.002714869 0 0 0 0
63046500 0.542414848 -0.817023488 0.017594634 -0.015835684 0 0 0 0
72046000 0.307135648 -0.918157312 0.029088654 -0.103159208 0 0 0 0
81045500 -0.120383424 -0.852593216 -0.456790976 -0.227739936 0 0 0 0
90045000 -0.354017088 -0.444566176 -0.181979504 0.712089344 0 0 0 0
99044500 -0.148087232 0.226250224 0.713399616 0.483804992 0 0 0 0
108044000 0.496123424 0.249014432 0.59537792 -0.615828224 0 0 0 0
117043500 0.826088064 -0.173269648 -0.162211024 -0.429779456 0 0 0 0
126043000 0.756305088 -0.529818368 -0.189606928 -0.177096416 0 0 0 0
135042500 0.610733504 -0.714235072 -0.193836576 -0.099145464 0 0 0 0
144042000 0.466883072 -0.816126528 -0.23877952 -0.011456819 0 0 0 0
153041500 0.33192272 -0.864730688 -0.231547488 0.170337712 0 0 0 0
162041000 0.249121984 -0.848368832 0.139306288 0.302593568 0 0 0 0
171040500 0.152426912 -0.922540352 0.092704648 0.002946813 0 0 0 0
180040000 0.030726464 -0.936857536 0.035308636 -0.005325864 0 0 0 0
189039500 -0.07656588 -0.932381248 0.019605604 -0.003149354 0 0 0 0
198039000 -0.177262448 -0.923121536 0.013450889 -0.003691664 0 0 0 0
207038500 -0.269550368 -0.901740288 0.008644683 -0.005211137 0 0 0 0
216038000 -0.352563232 -0.871739136 0.00400158 -0.004589864 0 0 0 0
225037500 -0.431653088 -0.833197568 0.001904611 -0.00281249 0 0 0 0
234037000 -0.511984288 -0.786119488 0.001230547 -0.001777701 0 0 0 0
243036500 -0.581678528 -0.732350272 0.001044037 -0.000897869 0 0 0 0
252036000 -0.648400768 -0.67585088 0.000764087 -0.000758918 0 0 0 0
261035500 -0.709114048 -0.621540736 0.000348997 -0.000475507 0 0 0 0
270035000 -0.763250624 -0.559703168 0.000230709 0.000117255 0 0 0 0
279034500 -0.811661952 -0.4988024 0.000277298 0.000394331 0 0 0 0
288034000 -0.849364032 -0.430958848 0.000371226 0.000720271 0 0 0 0
297033500 -0.887608064 -0.355365184 0.000504639 0.001025175 0 0 0 0
306033000 -0.917511936 -0.281831008 0.006478461 -0.003416205 0 0 0 0
315032500 -0.941576128 -0.189715968 0.004870834 -0.00421387 0 0 0 0
324032000 -0.960429952 -0.123625792 0.001917484 -0.009866647 0 0 0 0
333031500 -0.970976384 -0.045723936 9.7079e-05 -0.00775898 0 0 0 0
342031000 -0.96522592 0.041535552 0.001243395 -0.004263743 0 0 0 0
351030500 -0.95080448 0.145272096 0.001986797 -0.000528661 0 0 0 0
360030000 -0.940703552 0.260286832 0.00101458 0.00090488 0 0 0 0
369029500 -0.905331776 0.381880352 -0.000164324 0.000807295 0 0 0 0
378029000 -0.7879616 0.551830528 0.001740436 0.001628671 0 0 0 0
387028500 -0.161627056 0.578884928 0.005438329 0.002312841 0 0 0 0
396028000 -0.637382464 -0.265095616 0.006327488 -0.001017333 0 0 0 0
405027500 -0.914402624 0.052812896 0.001646317 -0.001712629 0 0 0 0
414027000 -0.933929216 0.241724496 -0.00207987 -0.001041452 0 0 0 0
423026500 -0.92320096 0.359615392 -0.003035734 -0.002730083 0 0 0 0
432026000 -0.908428096 0.455707904 -0.000483656 -0.005830403 0 0 0 0
441025500 -0.886406144 0.54790592 0.001011586 -0.002974761 0 0 0 0
450025000 -0.843379968 0.617985536 -0.001449206 -0.000243728 0 0 0 0
459024500 -0.79945408 0.691694208 -0.009011866 -5.2196e-05 0 0 0 0
468024000 -0.758399936 0.766057664 -0.005892604 -0.005699836 0 0 0 0
477023500 -0.716958848 0.81358688 -0.001843503 -0.00680727 0 0 0 0
486023000 -0.63516544 0.866340352 -0.000267683 -0.002664935 0 0 0 0
495022500 -0.481291328 0.938324992 -0.008540454 0.000700835 0 0 0 0
504022000 -0.265163872 0.716718464 -0.037379164 0.014677618 0 0 0 0
513021500 -0.669452224 0.717999488 -0.002131168 0.019828896 0 0 0 0
522021000 -0.604978944 0.857130752 0.007497558 0.003504367 0 0 0 0
531020500 -0.520093312 0.912444416 0.009889791 -5.9225e-05 0 0 0 0
540020000 -0.431158144 0.956205056 0.007251207 0.005590081 0 0 0 0
549019500 -0.361308768 0.995617408 0.002030912 0.006129498 0 0 0 0
558019000 -0.308519648 1.03260541 -0.001651262 0.000404484 0 0 0 0
567018500 -0.2617484 1.081073048 0.000823111 -0.003557875 0 0 0 0
576018000 -0.218437072 1.117604016 0.008164613 -0.003306123 0 0 0 0
585017500 -0.185558064 1.184906368 0.004480791 0.003333463 0 0 0 0
594017000 -0.141335968 1.19134248 0.000547351 -0.001374403 0 0 0 0
603016500 -0.124038488 1.1803956 0.00182659 0.000819303 0 0 0 0
612016000 -0.094276744 1.171980976 0.002831928 0.001595595 0 0 0 0
621015500 -0.061235848 1.16099728 0.001884383 0.005806615 0 0 0 0
630015000 -0.020423946 1.152279376 0.005244426 0.007632569 0 0 0 0
639014500 0.048230608 1.124896048 0.005395649 0.005237922 0 0 0 0
648014000 0.132575632 1.11423564 0.004144664 0.004230435 0 0 0 0
657013500 0.212611328 1.112734792 0.004205287 0.00093464 0 0 0 0
666013000 0.26440072 1.096009136 0.004697046 -0.000788796 0 0 0 0
675012500 0.299801856 1.056436776 0.004786813 0.000618313 0 0 0 0
684012000 0.370225088 1.020619512 0.005681 0.00109285 0 0 0 0
693011500 0.416199008 1.022889256 0.00771732 -0.00281953 0 0 0 0
702011000 0.451449824 1.050381304 0.007359957 -0.001428313 0 0 0 0
711010500 0.474530176 1.065002324 0.011820104 -0.002290436 0 0 0 0
720010000 0.46134832 1.045796992 0.015655695 -0.000226052 0 0 0 0
729009500 0.463276704 0.99012928 0.015012977 0.001753589 0 0 0 0
738009000 0.479469504 0.91041792 0.017336876 0.004616591 0 0 0 0
747008500 0.521087168 0.81589088 0.020890066 0.002378702 0 0 0 0
756008000 0.609042816 0.684691904 0.03700778 -0.004727562 0 0 0 0
765007500 0.410007808 0.41810992 0.019885164 -0.0855752 0 0 0 0
774007000 0.351805824 0.874801152 -0.04808826 -0.025326598 0 0 0 0
783006500 0.557405184 0.924614144 -0.024845886 -0.003163696 0 0 0 0
792006000 0.665327616 0.925005952 -0.02059717 -0.002204243 0 0 0 0
801005500 0.725776192 0.91602848 -0.011056006 -0.004660917 0 0 0 0
810005000 0.759387584 0.91507264 -0.007271695 -0.011443979 0 0 0 0
819004500 0.745331584 0.932308416 -0.006724994 -0.007044188 0 0 0 0
828004000 0.743867968 0.911621376 -0.003835559 -0.010387959 0 0 0 0
837003500 0.757603328 0.84751168 -0.000185163 -0.003807536 0 0 0 0
846003000 0.79585888 0.776592832 -0.002608431 -0.00085737 0 0 0 0
855002500 0.817151872 0.706267776 -0.003999027 -0.001276385 0 0 0 0
864002000 0.844429824 0.627720448 -0.006412823 -0.001091938 0 0 0 0
873001500 0.897681024 0.614066176 -0.005311388 -0.000641611 0 0 0 0
882001000 0.912914304 0.618034496 -0.000989521 -0.00364001 0 0 0 0
891000500 0.896003456 0.629020672 -0.006895492 -0.004871269 0 0 0 0
900000000 0.8848944 0.587504512 -0.007335759 -0.007169397 0 0 0 0
